% Generated by MiniZinc 2.9.3
% Solver library: /home/void/Workspace-Research/Code/fzn-minicpp/minizinc
% Command line invocation: minizinc --solver org.minicpp.ml --compile --no-output-ozn rcpsp-sat.mzn dzn/J60_4_1.dzn -D makespan=84 -o fzn-sat/J60_4_1.fzn 

predicate minicpp_cumulative(array [int] of var int: s,array [int] of var int: d,array [int] of var int: r,var int: b);
array [1..2] of int: X_INTRODUCED_78_ = [1,-1];
array [1..19] of int: X_INTRODUCED_135_ = [8,10,6,2,6,5,9,2,8,4,7,1,9,1,5,2,5,5,5];
array [1..19] of int: X_INTRODUCED_136_ = [10,10,4,10,7,9,4,2,4,6,10,3,6,3,7,10,4,9,2];
array [1..16] of int: X_INTRODUCED_138_ = [6,10,6,8,8,8,6,6,1,1,8,8,6,6,4,8];
array [1..16] of int: X_INTRODUCED_139_ = [7,7,5,10,4,6,4,9,4,6,3,9,5,5,8,8];
array [1..10] of int: X_INTRODUCED_141_ = [3,4,9,6,3,8,8,2,5,9];
array [1..10] of int: X_INTRODUCED_142_ = [9,8,8,7,6,10,1,9,8,8];
array [1..15] of int: X_INTRODUCED_144_ = [10,9,3,3,5,8,3,3,6,7,5,9,9,8,9];
array [1..15] of int: X_INTRODUCED_145_ = [6,8,6,5,7,7,7,10,1,2,10,7,9,2,1];
var 0..381: X_INTRODUCED_16_;
var 0..381: X_INTRODUCED_17_;
var 0..381: X_INTRODUCED_18_;
var 0..381: X_INTRODUCED_19_;
var 0..381: X_INTRODUCED_20_;
var 0..381: X_INTRODUCED_21_;
var 0..381: X_INTRODUCED_22_;
var 0..381: X_INTRODUCED_23_;
var 0..381: X_INTRODUCED_24_;
var 0..381: X_INTRODUCED_25_;
var 0..381: X_INTRODUCED_26_;
var 0..381: X_INTRODUCED_27_;
var 0..381: X_INTRODUCED_28_;
var 0..381: X_INTRODUCED_29_;
var 0..381: X_INTRODUCED_30_;
var 0..381: X_INTRODUCED_31_;
var 0..381: X_INTRODUCED_32_;
var 0..381: X_INTRODUCED_33_;
var 0..381: X_INTRODUCED_34_;
var 0..381: X_INTRODUCED_35_;
var 0..381: X_INTRODUCED_36_;
var 0..381: X_INTRODUCED_37_;
var 0..381: X_INTRODUCED_38_;
var 0..381: X_INTRODUCED_39_;
var 0..381: X_INTRODUCED_40_;
var 0..381: X_INTRODUCED_41_;
var 0..381: X_INTRODUCED_42_;
var 0..381: X_INTRODUCED_43_;
var 0..381: X_INTRODUCED_44_;
var 0..381: X_INTRODUCED_45_;
var 0..381: X_INTRODUCED_46_;
var 0..381: X_INTRODUCED_47_;
var 0..381: X_INTRODUCED_48_;
var 0..381: X_INTRODUCED_49_;
var 0..381: X_INTRODUCED_50_;
var 0..381: X_INTRODUCED_51_;
var 0..381: X_INTRODUCED_52_;
var 0..381: X_INTRODUCED_53_;
var 0..381: X_INTRODUCED_54_;
var 0..381: X_INTRODUCED_55_;
var 0..381: X_INTRODUCED_56_;
var 0..381: X_INTRODUCED_57_;
var 0..381: X_INTRODUCED_58_;
var 0..381: X_INTRODUCED_59_;
var 0..381: X_INTRODUCED_60_;
var 0..381: X_INTRODUCED_61_;
var 0..381: X_INTRODUCED_62_;
var 0..381: X_INTRODUCED_63_;
var 0..381: X_INTRODUCED_64_;
var 0..381: X_INTRODUCED_65_;
var 0..381: X_INTRODUCED_66_;
var 0..381: X_INTRODUCED_67_;
var 0..381: X_INTRODUCED_68_;
var 0..381: X_INTRODUCED_69_;
var 0..381: X_INTRODUCED_70_;
var 0..381: X_INTRODUCED_71_;
var 0..381: X_INTRODUCED_72_;
var 0..76: X_INTRODUCED_73_;
var 0..83: X_INTRODUCED_74_;
var 0..76: X_INTRODUCED_75_;
array [1..60] of var int: s:: output_array([1..60]) = [X_INTRODUCED_16_,X_INTRODUCED_17_,X_INTRODUCED_18_,X_INTRODUCED_19_,X_INTRODUCED_20_,X_INTRODUCED_21_,X_INTRODUCED_22_,X_INTRODUCED_23_,X_INTRODUCED_24_,X_INTRODUCED_25_,X_INTRODUCED_26_,X_INTRODUCED_27_,X_INTRODUCED_28_,X_INTRODUCED_29_,X_INTRODUCED_30_,X_INTRODUCED_31_,X_INTRODUCED_32_,X_INTRODUCED_33_,X_INTRODUCED_34_,X_INTRODUCED_35_,X_INTRODUCED_36_,X_INTRODUCED_37_,X_INTRODUCED_38_,X_INTRODUCED_39_,X_INTRODUCED_40_,X_INTRODUCED_41_,X_INTRODUCED_42_,X_INTRODUCED_43_,X_INTRODUCED_44_,X_INTRODUCED_45_,X_INTRODUCED_46_,X_INTRODUCED_47_,X_INTRODUCED_48_,X_INTRODUCED_49_,X_INTRODUCED_50_,X_INTRODUCED_51_,X_INTRODUCED_52_,X_INTRODUCED_53_,X_INTRODUCED_54_,X_INTRODUCED_55_,X_INTRODUCED_56_,X_INTRODUCED_57_,X_INTRODUCED_58_,X_INTRODUCED_59_,X_INTRODUCED_60_,X_INTRODUCED_61_,X_INTRODUCED_62_,X_INTRODUCED_63_,X_INTRODUCED_64_,X_INTRODUCED_65_,X_INTRODUCED_66_,X_INTRODUCED_67_,X_INTRODUCED_68_,X_INTRODUCED_69_,X_INTRODUCED_70_,X_INTRODUCED_71_,X_INTRODUCED_72_,X_INTRODUCED_73_,X_INTRODUCED_74_,X_INTRODUCED_75_];
array [1..19] of var int: X_INTRODUCED_137_ ::var_is_introduced  = [X_INTRODUCED_16_,X_INTRODUCED_20_,X_INTRODUCED_22_,X_INTRODUCED_24_,X_INTRODUCED_26_,X_INTRODUCED_28_,X_INTRODUCED_31_,X_INTRODUCED_36_,X_INTRODUCED_40_,X_INTRODUCED_43_,X_INTRODUCED_47_,X_INTRODUCED_49_,X_INTRODUCED_55_,X_INTRODUCED_57_,X_INTRODUCED_58_,X_INTRODUCED_59_,X_INTRODUCED_61_,X_INTRODUCED_66_,X_INTRODUCED_70_];
array [1..16] of var int: X_INTRODUCED_140_ ::var_is_introduced  = [X_INTRODUCED_18_,X_INTRODUCED_19_,X_INTRODUCED_27_,X_INTRODUCED_32_,X_INTRODUCED_35_,X_INTRODUCED_38_,X_INTRODUCED_42_,X_INTRODUCED_45_,X_INTRODUCED_51_,X_INTRODUCED_52_,X_INTRODUCED_56_,X_INTRODUCED_60_,X_INTRODUCED_63_,X_INTRODUCED_65_,X_INTRODUCED_67_,X_INTRODUCED_68_];
array [1..10] of var int: X_INTRODUCED_143_ ::var_is_introduced  = [X_INTRODUCED_21_,X_INTRODUCED_23_,X_INTRODUCED_33_,X_INTRODUCED_41_,X_INTRODUCED_48_,X_INTRODUCED_50_,X_INTRODUCED_62_,X_INTRODUCED_69_,X_INTRODUCED_73_,X_INTRODUCED_75_];
array [1..15] of var int: X_INTRODUCED_146_ ::var_is_introduced  = [X_INTRODUCED_17_,X_INTRODUCED_25_,X_INTRODUCED_29_,X_INTRODUCED_30_,X_INTRODUCED_34_,X_INTRODUCED_37_,X_INTRODUCED_39_,X_INTRODUCED_44_,X_INTRODUCED_46_,X_INTRODUCED_53_,X_INTRODUCED_54_,X_INTRODUCED_64_,X_INTRODUCED_71_,X_INTRODUCED_72_,X_INTRODUCED_74_];
constraint int_lin_le(X_INTRODUCED_78_,[X_INTRODUCED_16_,X_INTRODUCED_26_],-10);
constraint int_lin_le(X_INTRODUCED_78_,[X_INTRODUCED_16_,X_INTRODUCED_39_],-10);
constraint int_lin_le(X_INTRODUCED_78_,[X_INTRODUCED_16_,X_INTRODUCED_61_],-10);
constraint int_lin_le(X_INTRODUCED_78_,[X_INTRODUCED_17_,X_INTRODUCED_20_],-6);
constraint int_lin_le(X_INTRODUCED_78_,[X_INTRODUCED_17_,X_INTRODUCED_27_],-6);
constraint int_lin_le(X_INTRODUCED_78_,[X_INTRODUCED_18_,X_INTRODUCED_19_],-7);
constraint int_lin_le(X_INTRODUCED_78_,[X_INTRODUCED_18_,X_INTRODUCED_28_],-7);
constraint int_lin_le(X_INTRODUCED_78_,[X_INTRODUCED_18_,X_INTRODUCED_30_],-7);
constraint int_lin_le(X_INTRODUCED_78_,[X_INTRODUCED_19_,X_INTRODUCED_24_],-7);
constraint int_lin_le(X_INTRODUCED_78_,[X_INTRODUCED_19_,X_INTRODUCED_42_],-7);
constraint int_lin_le(X_INTRODUCED_78_,[X_INTRODUCED_19_,X_INTRODUCED_46_],-7);
constraint int_lin_le(X_INTRODUCED_78_,[X_INTRODUCED_20_,X_INTRODUCED_21_],-10);
constraint int_lin_le(X_INTRODUCED_78_,[X_INTRODUCED_20_,X_INTRODUCED_22_],-10);
constraint int_lin_le(X_INTRODUCED_78_,[X_INTRODUCED_20_,X_INTRODUCED_23_],-10);
constraint int_lin_le(X_INTRODUCED_78_,[X_INTRODUCED_21_,X_INTRODUCED_29_],-9);
constraint int_lin_le(X_INTRODUCED_78_,[X_INTRODUCED_21_,X_INTRODUCED_38_],-9);
constraint int_lin_le(X_INTRODUCED_78_,[X_INTRODUCED_21_,X_INTRODUCED_56_],-9);
constraint int_lin_le(X_INTRODUCED_78_,[X_INTRODUCED_22_,X_INTRODUCED_25_],-4);
constraint int_lin_le(X_INTRODUCED_78_,[X_INTRODUCED_23_,X_INTRODUCED_41_],-8);
constraint int_lin_le(X_INTRODUCED_78_,[X_INTRODUCED_23_,X_INTRODUCED_43_],-8);
constraint int_lin_le(X_INTRODUCED_78_,[X_INTRODUCED_24_,X_INTRODUCED_40_],-10);
constraint int_lin_le(X_INTRODUCED_78_,[X_INTRODUCED_24_,X_INTRODUCED_51_],-10);
constraint int_lin_le(X_INTRODUCED_78_,[X_INTRODUCED_24_,X_INTRODUCED_75_],-10);
constraint int_lin_le(X_INTRODUCED_78_,[X_INTRODUCED_25_,X_INTRODUCED_32_],-8);
constraint int_lin_le(X_INTRODUCED_78_,[X_INTRODUCED_25_,X_INTRODUCED_63_],-8);
constraint int_lin_le(X_INTRODUCED_78_,[X_INTRODUCED_25_,X_INTRODUCED_70_],-8);
constraint int_lin_le(X_INTRODUCED_78_,[X_INTRODUCED_26_,X_INTRODUCED_33_],-7);
constraint int_lin_le(X_INTRODUCED_78_,[X_INTRODUCED_26_,X_INTRODUCED_37_],-7);
constraint int_lin_le(X_INTRODUCED_78_,[X_INTRODUCED_27_,X_INTRODUCED_35_],-5);
constraint int_lin_le(X_INTRODUCED_78_,[X_INTRODUCED_28_,X_INTRODUCED_53_],-9);
constraint int_lin_le(X_INTRODUCED_78_,[X_INTRODUCED_29_,X_INTRODUCED_31_],-6);
constraint int_lin_le(X_INTRODUCED_78_,[X_INTRODUCED_30_,X_INTRODUCED_33_],-5);
constraint int_lin_le(X_INTRODUCED_78_,[X_INTRODUCED_30_,X_INTRODUCED_47_],-5);
constraint int_lin_le(X_INTRODUCED_78_,[X_INTRODUCED_30_,X_INTRODUCED_58_],-5);
constraint int_lin_le(X_INTRODUCED_78_,[X_INTRODUCED_31_,X_INTRODUCED_58_],-4);
constraint int_lin_le(X_INTRODUCED_78_,[X_INTRODUCED_32_,X_INTRODUCED_34_],-10);
constraint int_lin_le(X_INTRODUCED_78_,[X_INTRODUCED_32_,X_INTRODUCED_55_],-10);
constraint int_lin_le(X_INTRODUCED_78_,[X_INTRODUCED_33_,X_INTRODUCED_74_],-8);
constraint int_lin_le(X_INTRODUCED_78_,[X_INTRODUCED_34_,X_INTRODUCED_36_],-7);
constraint int_lin_le(X_INTRODUCED_78_,[X_INTRODUCED_34_,X_INTRODUCED_48_],-7);
constraint int_lin_le(X_INTRODUCED_78_,[X_INTRODUCED_34_,X_INTRODUCED_53_],-7);
constraint int_lin_le(X_INTRODUCED_78_,[X_INTRODUCED_35_,X_INTRODUCED_64_],-4);
constraint int_lin_le(X_INTRODUCED_78_,[X_INTRODUCED_36_,X_INTRODUCED_69_],-2);
constraint int_lin_le(X_INTRODUCED_78_,[X_INTRODUCED_37_,X_INTRODUCED_72_],-7);
constraint int_lin_le(X_INTRODUCED_78_,[X_INTRODUCED_38_,X_INTRODUCED_70_],-6);
constraint int_lin_le(X_INTRODUCED_78_,[X_INTRODUCED_39_,X_INTRODUCED_50_],-7);
constraint int_lin_le(X_INTRODUCED_78_,[X_INTRODUCED_40_,X_INTRODUCED_69_],-4);
constraint int_lin_le(X_INTRODUCED_78_,[X_INTRODUCED_41_,X_INTRODUCED_59_],-7);
constraint int_lin_le(X_INTRODUCED_78_,[X_INTRODUCED_42_,X_INTRODUCED_45_],-4);
constraint int_lin_le(X_INTRODUCED_78_,[X_INTRODUCED_42_,X_INTRODUCED_52_],-4);
constraint int_lin_le(X_INTRODUCED_78_,[X_INTRODUCED_43_,X_INTRODUCED_44_],-6);
constraint int_lin_le(X_INTRODUCED_78_,[X_INTRODUCED_43_,X_INTRODUCED_54_],-6);
constraint int_lin_le(X_INTRODUCED_78_,[X_INTRODUCED_44_,X_INTRODUCED_49_],-10);
constraint int_lin_le(X_INTRODUCED_78_,[X_INTRODUCED_44_,X_INTRODUCED_67_],-10);
constraint int_lin_le(X_INTRODUCED_78_,[X_INTRODUCED_45_,X_INTRODUCED_51_],-9);
constraint int_lin_le(X_INTRODUCED_78_,[X_INTRODUCED_46_,X_INTRODUCED_59_],-1);
constraint int_lin_le(X_INTRODUCED_78_,[X_INTRODUCED_47_,X_INTRODUCED_50_],-10);
constraint int_lin_le(X_INTRODUCED_78_,[X_INTRODUCED_48_,X_INTRODUCED_57_],-6);
constraint int_lin_le(X_INTRODUCED_78_,[X_INTRODUCED_48_,X_INTRODUCED_65_],-6);
constraint int_lin_le(X_INTRODUCED_78_,[X_INTRODUCED_48_,X_INTRODUCED_68_],-6);
constraint int_lin_le(X_INTRODUCED_78_,[X_INTRODUCED_49_,X_INTRODUCED_55_],-3);
constraint int_lin_le(X_INTRODUCED_78_,[X_INTRODUCED_49_,X_INTRODUCED_60_],-3);
constraint int_lin_le(X_INTRODUCED_78_,[X_INTRODUCED_49_,X_INTRODUCED_71_],-3);
constraint int_lin_le(X_INTRODUCED_78_,[X_INTRODUCED_50_,X_INTRODUCED_62_],-10);
constraint int_lin_le(X_INTRODUCED_78_,[X_INTRODUCED_51_,X_INTRODUCED_58_],-4);
constraint int_lin_le(X_INTRODUCED_78_,[X_INTRODUCED_52_,X_INTRODUCED_53_],-6);
constraint int_lin_le(X_INTRODUCED_78_,[X_INTRODUCED_53_,X_INTRODUCED_73_],-2);
constraint int_lin_le(X_INTRODUCED_78_,[X_INTRODUCED_54_,X_INTRODUCED_66_],-10);
constraint int_lin_le(X_INTRODUCED_78_,[X_INTRODUCED_55_,X_INTRODUCED_59_],-6);
constraint int_lin_le(X_INTRODUCED_78_,[X_INTRODUCED_56_,X_INTRODUCED_73_],-3);
constraint int_lin_le(X_INTRODUCED_78_,[X_INTRODUCED_57_,X_INTRODUCED_72_],-3);
constraint int_lin_le(X_INTRODUCED_78_,[X_INTRODUCED_58_,X_INTRODUCED_60_],-7);
constraint int_lin_le(X_INTRODUCED_78_,[X_INTRODUCED_59_,X_INTRODUCED_68_],-10);
constraint int_lin_le(X_INTRODUCED_78_,[X_INTRODUCED_60_,X_INTRODUCED_65_],-9);
constraint int_lin_le(X_INTRODUCED_78_,[X_INTRODUCED_61_,X_INTRODUCED_64_],-4);
constraint int_lin_le(X_INTRODUCED_78_,[X_INTRODUCED_61_,X_INTRODUCED_67_],-4);
constraint int_lin_le(X_INTRODUCED_78_,[X_INTRODUCED_62_,X_INTRODUCED_74_],-1);
constraint int_lin_le(X_INTRODUCED_78_,[X_INTRODUCED_63_,X_INTRODUCED_72_],-5);
constraint int_lin_le(X_INTRODUCED_78_,[X_INTRODUCED_64_,X_INTRODUCED_68_],-7);
constraint int_lin_le(X_INTRODUCED_78_,[X_INTRODUCED_65_,X_INTRODUCED_66_],-5);
constraint int_lin_le(X_INTRODUCED_78_,[X_INTRODUCED_66_,X_INTRODUCED_74_],-9);
constraint int_lin_le(X_INTRODUCED_78_,[X_INTRODUCED_67_,X_INTRODUCED_71_],-8);
constraint int_lin_le(X_INTRODUCED_78_,[X_INTRODUCED_68_,X_INTRODUCED_69_],-8);
constraint int_lin_le(X_INTRODUCED_78_,[X_INTRODUCED_69_,X_INTRODUCED_73_],-9);
constraint int_lin_le(X_INTRODUCED_78_,[X_INTRODUCED_70_,X_INTRODUCED_71_],-2);
constraint int_lin_le(X_INTRODUCED_78_,[X_INTRODUCED_71_,X_INTRODUCED_75_],-9);
constraint int_lin_le(X_INTRODUCED_78_,[X_INTRODUCED_72_,X_INTRODUCED_75_],-2);
constraint minicpp_cumulative(X_INTRODUCED_137_,X_INTRODUCED_136_,X_INTRODUCED_135_,33);
constraint minicpp_cumulative(X_INTRODUCED_140_,X_INTRODUCED_139_,X_INTRODUCED_138_,23);
constraint minicpp_cumulative(X_INTRODUCED_143_,X_INTRODUCED_142_,X_INTRODUCED_141_,26);
constraint minicpp_cumulative(X_INTRODUCED_146_,X_INTRODUCED_145_,X_INTRODUCED_144_,26);
solve :: int_search(s,smallest,indomain_min,complete) satisfy;
